10	5
0	4	3	4	2	1
1	1	5
2	1	5
3	1	11
4	2	7	6
5	1	9
6	1	11
7	1	10
8	1	11
9	1	11
10	1	11
11	0
0	0	0	0	0	0	0
1	5	0	4	4	5	0
2	7	5	1	0	2	0
3	2	2	0	2	1	3
4	3	1	1	2	1	1
5	4	1	0	4	0	2
6	10	5	1	5	1	4
7	5	3	3	0	0	1
8	4	2	2	3	4	3
9	4	0	2	5	2	4
10	8	3	0	2	0	4
11	0	0	0	0	0	0
7	6	6	6	6
